language Essence 1.3
letting nnodes be 40
letting nrings be 20
letting capacity be 15
letting demand be 
{{1, 2},
{1, 3},
{1, 4},
{1, 5},
{1, 6},
{1, 9},
{1, 12},
{1, 13},
{1, 14},
{1, 15},
{1, 16},
{1, 18},
{1, 24},
{1, 25},
{1, 28},
{1, 30},
{1, 31},
{1, 32},
{1, 33},
{1, 34},
{1, 35},
{1, 36},
{1, 38},
{1, 39},
{2, 3},
{2, 7},
{2, 11},
{2, 18},
{2, 19},
{2, 22},
{2, 24},
{2, 25},
{2, 26},
{2, 30},
{2, 33},
{2, 34},
{2, 36},
{2, 37},
{2, 38},
{2, 40},
{3, 7},
{3, 9},
{3, 10},
{3, 18},
{3, 19},
{3, 20},
{3, 23},
{3, 28},
{3, 29},
{3, 32},
{3, 35},
{3, 36},
{3, 37},
{3, 38},
{3, 40},
{4, 5},
{4, 7},
{4, 12},
{4, 13},
{4, 14},
{4, 15},
{4, 19},
{4, 20},
{4, 22},
{4, 24},
{4, 26},
{4, 30},
{4, 31},
{4, 35},
{4, 36},
{4, 37},
{5, 6},
{5, 7},
{5, 11},
{5, 13},
{5, 16},
{5, 17},
{5, 19},
{5, 20},
{5, 22},
{5, 23},
{5, 24},
{5, 25},
{5, 26},
{5, 29},
{5, 31},
{5, 36},
{5, 37},
{5, 39},
{6, 10},
{6, 13},
{6, 14},
{6, 15},
{6, 16},
{6, 19},
{6, 21},
{6, 24},
{6, 25},
{6, 26},
{6, 28},
{6, 30},
{6, 31},
{6, 32},
{6, 33},
{6, 34},
{6, 36},
{6, 37},
{6, 40},
{7, 8},
{7, 12},
{7, 14},
{7, 16},
{7, 18},
{7, 20},
{7, 21},
{7, 22},
{7, 26},
{7, 31},
{7, 34},
{7, 38},
{7, 39},
{7, 40},
{8, 11},
{8, 13},
{8, 14},
{8, 15},
{8, 17},
{8, 19},
{8, 23},
{8, 25},
{8, 27},
{8, 28},
{8, 29},
{8, 34},
{8, 35},
{8, 39},
{8, 40},
{9, 10},
{9, 11},
{9, 12},
{9, 14},
{9, 17},
{9, 18},
{9, 23},
{9, 24},
{9, 26},
{9, 27},
{9, 28},
{9, 30},
{9, 32},
{9, 35},
{9, 37},
{9, 38},
{9, 39},
{9, 40},
{10, 12},
{10, 14},
{10, 15},
{10, 16},
{10, 18},
{10, 20},
{10, 21},
{10, 23},
{10, 24},
{10, 27},
{10, 29},
{10, 31},
{10, 33},
{10, 34},
{10, 39},
{10, 40},
{11, 12},
{11, 16},
{11, 18},
{11, 22},
{11, 26},
{11, 31},
{11, 36},
{11, 38},
{11, 39},
{12, 14},
{12, 15},
{12, 19},
{12, 26},
{12, 27},
{12, 29},
{12, 30},
{12, 34},
{12, 35},
{12, 37},
{12, 38},
{13, 17},
{13, 18},
{13, 22},
{13, 24},
{13, 25},
{13, 26},
{13, 28},
{13, 34},
{13, 35},
{13, 36},
{13, 39},
{13, 40},
{14, 15},
{14, 16},
{14, 17},
{14, 21},
{14, 24},
{14, 26},
{14, 28},
{14, 30},
{14, 31},
{14, 32},
{14, 33},
{14, 34},
{14, 35},
{14, 36},
{14, 38},
{14, 40},
{15, 16},
{15, 18},
{15, 19},
{15, 20},
{15, 23},
{15, 24},
{15, 25},
{15, 26},
{15, 31},
{15, 32},
{15, 33},
{15, 34},
{15, 37},
{15, 39},
{16, 17},
{16, 21},
{16, 22},
{16, 23},
{16, 25},
{16, 26},
{16, 27},
{16, 28},
{16, 31},
{16, 37},
{16, 40},
{17, 18},
{17, 19},
{17, 20},
{17, 21},
{17, 22},
{17, 25},
{17, 26},
{17, 27},
{17, 28},
{17, 30},
{17, 31},
{17, 33},
{17, 34},
{17, 37},
{17, 40},
{18, 22},
{18, 23},
{18, 24},
{18, 26},
{18, 29},
{18, 34},
{18, 35},
{18, 36},
{18, 37},
{18, 39},
{19, 20},
{19, 26},
{19, 28},
{19, 29},
{19, 31},
{19, 32},
{19, 34},
{19, 36},
{19, 37},
{19, 40},
{20, 21},
{20, 23},
{20, 24},
{20, 26},
{20, 27},
{20, 28},
{20, 30},
{20, 33},
{20, 34},
{20, 37},
{21, 24},
{21, 26},
{21, 28},
{21, 30},
{21, 31},
{21, 32},
{21, 33},
{21, 34},
{21, 36},
{21, 37},
{21, 38},
{21, 39},
{21, 40},
{22, 25},
{22, 26},
{22, 30},
{22, 33},
{22, 35},
{23, 24},
{23, 27},
{23, 29},
{23, 30},
{23, 31},
{23, 32},
{23, 35},
{23, 37},
{24, 25},
{24, 30},
{24, 32},
{24, 33},
{24, 36},
{24, 37},
{24, 38},
{24, 40},
{25, 27},
{25, 28},
{25, 30},
{25, 32},
{25, 35},
{25, 39},
{25, 40},
{26, 28},
{26, 31},
{26, 36},
{26, 37},
{27, 29},
{27, 31},
{27, 34},
{27, 37},
{27, 39},
{28, 30},
{28, 34},
{28, 39},
{29, 30},
{29, 33},
{29, 35},
{29, 37},
{29, 38},
{30, 33},
{30, 34},
{30, 36},
{30, 37},
{30, 38},
{30, 40},
{31, 33},
{31, 35},
{31, 38},
{33, 34},
{33, 35},
{33, 37},
{33, 39},
{34, 35},
{35, 40},
{36, 38},
{36, 39},
{37, 39},
{38, 40}}
